p cnf 39 89
c ind 34 37 32 36 35 31 33 30 1 0
c ret 19 28 29 20 21 22 23 24 25 26 0
c ret 27 0
2 7 -12 0
2 3 -4 -12 0
-2 12 0
-2 -3 -7 0
-2 4 -7 0
3 -22 28 -31 33 0
3 22 -28 31 -33 0
3 22 28 31 33 0
3 -22 -28 -31 -33 0
-3 -22 31 0
-3 22 -31 0
-3 28 -33 0
-3 -28 33 0
4 -5 6 0
4 6 -28 36 0
4 6 28 -36 0
-4 -6 0
-4 5 -28 -36 0
-4 5 28 36 0
5 22 -32 0
5 -22 32 0
-5 -22 -32 0
-5 22 32 0
6 -22 28 -30 35 0
6 22 -28 30 -35 0
6 22 28 30 35 0
6 -22 -28 -30 -35 0
-6 -22 30 0
-6 22 -30 0
-6 28 -35 0
-6 -28 35 0
7 -8 -9 -10 33 0
7 8 -9 -10 -33 0
-7 10 0
-7 8 33 0
-7 9 0
-7 -8 -33 0
8 34 35 0
-8 -34 0
-8 -35 0
9 30 31 32 0
-9 -30 0
-9 -32 0
-9 -31 0
10 -11 36 0
10 11 -36 0
-10 -11 -36 0
-10 11 36 0
11 -31 37 0
11 33 37 0
-11 -37 0
-11 31 -33 0
12 -13 -16 -17 28 0
12 -13 16 -17 -28 0
-12 17 0
-12 -16 -28 0
-12 13 0
-12 16 28 0
13 14 -15 -26 0
13 -14 -15 26 0
13 -14 -23 26 0
13 14 -23 -26 0
-13 -14 -26 0
-13 14 26 0
-13 15 23 0
14 -20 27 0
14 23 27 0
-14 -27 0
-14 20 -23 0
15 24 25 0
15 -19 24 0
-15 -24 0
-15 19 -25 0
16 -21 29 0
16 26 29 0
-16 -29 0
-16 21 -26 0
15 17 -18 0
17 -18 23 0
-17 18 0
-15 -17 -23 0
18 19 20 21 22 0
-18 -22 0
-18 -21 0
-18 -19 0
-18 -20 0
1 2 0
-1 -2 0
38 0

